data/instances/vrp_files/train_46.vrp
NAME : 46
COMMENT : Generated instance No. 46
TYPE : CVRP
DIMENSION : 21
EDGE_WEIGHT_TYPE : EUC_2D
CAPACITY : 30
NODE_COORD_SECTION
 1 976 125
 2 880 215
 3 677 607
 4 295 136
 5 651 738
 6 315 644
 7 395 713
 8 199 890
 9 287 367
 10 58 111
 11 515 267
 12 835 14
 13 379 337
 14 19 124
 15 413 492
 16 404 530
 17 595 9
 18 464 963
 19 519 677
 20 311 773
 21 772 521
DEMAND_SECTION
1 0
2 5
3 10
4 9
5 2
6 5
7 6
8 7
9 5
10 9
11 1
12 7
13 10
14 7
15 4
16 9
17 5
18 4
19 7
20 4
21 3
DEPOT_SECTION
 1
 -1
EOF